* ENCODING=ISO-8859-1
NAME          CPLEX
ROWS
 N  obj1    
 G  c1      
 G  c2      
 G  c3      
 G  c4      
 G  c5      
 G  c6      
 G  c7      
 G  c8      
 G  c9      
 G  c10     
 G  c11     
 G  c12     
 G  c13     
 G  c14     
 G  c15     
 G  c16     
 G  c17     
 G  c18     
 G  c19     
 G  c20     
 G  c21     
 G  c22     
 G  c23     
 G  c24     
 G  c25     
 G  c26     
 G  c27     
 G  c28     
 G  c29     
 G  c30     
 G  c31     
 G  c32     
 G  c33     
 G  c34     
 G  c35     
COLUMNS
    MARK0000  'MARKER'                 'INTORG'
    x1        obj1                            1
    x1        c6                            861
    x2        obj1                            1
    x2        c4                            561
    x2        c7                            171
    x2        c11                           758
    x2        c18                           497
    x2        c28                           767
    x2        c30                           638
    x3        obj1                            1
    x3        c12                           964
    x4        obj1                            1
    x4        c5                            800
    x4        c7                            834
    x4        c9                            361
    x4        c22                           737
    x4        c27                           548
    x4        c34                           122
    x5        obj1                            1
    x5        c16                           828
    x5        c35                           856
    x6        obj1                            1
    x6        c2                            384
    x6        c22                           996
    x7        obj1                            1
    x7        c12                           482
    x7        c34                           991
    x8        obj1                            1
    x8        c2                            706
    x8        c26                           997
    x8        c27                           737
    x8        c29                           634
    x8        c34                           667
    x9        obj1                            1
    x9        c4                            304
    x10       obj1                            1
    x10       c4                            338
    x10       c6                            115
    x10       c8                            464
    x10       c12                           713
    x10       c33                           323
    x11       obj1                            1
    x11       c10                           911
    x11       c14                           182
    x11       c34                           128
    x12       obj1                            1
    x12       c23                           168
    x13       obj1                            1
    x13       c3                            302
    x13       c9                            417
    x13       c10                           935
    x14       obj1                            1
    x14       c1                            734
    x14       c9                            833
    x14       c13                           814
    x14       c24                           564
    x14       c25                           199
    x15       obj1                            1
    x15       c2                            834
    x15       c8                            363
    x15       c18                           695
    x15       c23                           350
    x16       obj1                            1
    x16       c14                           607
    x17       obj1                            1
    x17       c2                            100
    x17       c18                           759
    x17       c22                           125
    x17       c26                           443
    x17       c29                           937
    x17       c31                           787
    x18       obj1                            1
    x18       c9                            449
    x18       c10                           305
    x18       c15                           304
    x18       c21                           243
    x18       c26                           682
    x18       c29                           656
    x18       c35                           983
    x19       obj1                            1
    x19       c12                           140
    x19       c26                           305
    x19       c30                           742
    x20       obj1                            1
    x20       c10                           304
    x20       c18                           723
    x20       c22                           792
    x20       c26                           236
    x21       obj1                            1
    x21       c4                            225
    x21       c31                           854
    x22       obj1                            1
    x22       c12                           337
    x22       c25                           265
    x22       c29                           417
    x23       obj1                            1
    x23       c3                            704
    x23       c18                           872
    x23       c28                           795
    x24       obj1                            1
    x24       c16                           502
    x24       c18                           157
    x25       obj1                            1
    x25       c5                            158
    x25       c13                           686
    x25       c18                           553
    x25       c24                           458
    x26       obj1                            1
    x26       c17                           221
    x26       c29                           935
    x26       c33                           867
    x27       obj1                            1
    x27       c5                            199
    x27       c8                            832
    x27       c14                           779
    x28       obj1                            1
    x28       c1                            950
    x28       c12                           502
    x28       c16                           810
    x29       obj1                            1
    x29       c1                            609
    x29       c19                           421
    x30       obj1                            1
    x30       c11                           640
    x31       obj1                            1
    x31       c13                           494
    x31       c28                           371
    x31       c33                           190
    x32       obj1                            1
    x32       c1                            148
    x32       c8                            673
    x32       c20                           738
    x32       c30                           770
    x32       c34                           129
    x33       obj1                            1
    x33       c16                           473
    x33       c20                           696
    x33       c31                           649
    x33       c33                           747
    x34       obj1                            1
    x34       c13                           947
    x34       c19                           631
    x35       obj1                            1
    x35       c1                            697
    x35       c6                            565
    x35       c19                           117
    x35       c22                           991
    x35       c24                           202
    x36       obj1                            1
    x36       c12                           831
    x36       c32                           729
    x37       obj1                            1
    x37       c1                            530
    x37       c13                           142
    x37       c14                           745
    x37       c23                           246
    x37       c33                           259
    x38       obj1                            1
    x38       c7                            257
    x38       c14                           570
    x38       c31                           902
    x39       obj1                            1
    x39       c17                           558
    x39       c22                           722
    x39       c25                           649
    x39       c33                           938
    x39       c35                           372
    x40       obj1                            1
    x40       c3                            356
    x40       c11                           976
    x40       c13                           477
    x40       c18                           655
    x40       c24                           280
    x41       obj1                            1
    x41       c27                           767
    x41       c31                           390
    x41       c35                           478
    x42       obj1                            1
    x42       c17                           368
    x43       obj1                            1
    x43       c27                           190
    x43       c30                           974
    x44       obj1                            1
    x44       c24                           264
    x44       c28                           283
    x44       c30                           865
    x44       c33                           347
    x45       obj1                            1
    x45       c24                           467
    x45       c26                           119
    x46       obj1                            1
    x46       c3                            736
    x46       c19                           757
    x47       obj1                            1
    x47       c2                            640
    x47       c20                           440
    x47       c22                           933
    x47       c31                           305
    x47       c34                           346
    x48       obj1                            1
    x48       c8                            389
    x48       c17                           929
    x48       c30                           284
    x48       c32                           541
    x49       obj1                            1
    x49       c6                            245
    x49       c16                           161
    x49       c23                           254
    x49       c24                           748
    x49       c30                           904
    x50       obj1                            1
    x50       c5                            924
    x50       c10                           277
    x50       c15                           474
    x50       c32                           762
    x50       c35                           313
    x51       obj1                            1
    x51       c9                            183
    x52       obj1                            1
    x53       obj1                            1
    x53       c12                           844
    x53       c13                           729
    x53       c27                           232
    x53       c34                           919
    x54       obj1                            1
    x54       c2                            527
    x54       c5                            574
    x55       obj1                            1
    x55       c18                           808
    x55       c20                           551
    x55       c22                           806
    x56       obj1                            1
    x56       c28                           982
    x57       obj1                            1
    x57       c9                            916
    x57       c21                           828
    x57       c22                           512
    x57       c32                           916
    x57       c34                           481
    x58       obj1                            1
    x58       c24                           303
    x58       c32                           210
    x58       c35                           474
    x59       obj1                            1
    x59       c2                            120
    x59       c3                            309
    x59       c17                           205
    x59       c23                           733
    x59       c31                           800
    x59       c33                           256
    x60       obj1                            1
    x60       c13                           126
    x60       c22                           615
    x60       c26                           704
    x61       obj1                            1
    x61       c1                            469
    x61       c15                           808
    x62       obj1                            1
    x62       c5                            729
    x62       c16                           360
    x62       c21                           669
    x62       c26                           290
    x62       c29                           597
    x63       obj1                            1
    x63       c10                           834
    x63       c14                           259
    x63       c25                           902
    x63       c32                           754
    x64       obj1                            1
    x64       c30                           176
    x64       c32                           972
    x65       obj1                            1
    x65       c10                           273
    x65       c11                           895
    x65       c12                           867
    x65       c34                           766
    x66       obj1                            1
    x66       c9                            463
    x66       c13                           279
    x66       c28                           816
    x66       c34                           483
    x67       obj1                            1
    x67       c1                            757
    x67       c21                           622
    x67       c25                           933
    x67       c28                           426
    x67       c31                           919
    x68       obj1                            1
    x68       c6                            755
    x68       c12                           625
    x68       c15                           966
    x68       c28                           877
    x68       c35                           390
    x69       obj1                            1
    x69       c8                            587
    x69       c23                           860
    x69       c24                           631
    x69       c28                           185
    x70       obj1                            1
    x70       c7                            195
    x70       c8                            504
    MARK0001  'MARKER'                 'INTEND'
RHS
    rhs       c1                           2447
    rhs       c2                           1656
    rhs       c3                           1204
    rhs       c4                            714
    rhs       c5                           1692
    rhs       c6                           1271
    rhs       c7                            729
    rhs       c8                           1906
    rhs       c9                           1811
    rhs       c10                          1920
    rhs       c11                          1635
    rhs       c12                          3153
    rhs       c13                          2347
    rhs       c14                          1571
    rhs       c15                          1276
    rhs       c16                          1567
    rhs       c17                          1141
    rhs       c18                          2860
    rhs       c19                           963
    rhs       c20                          1213
    rhs       c21                          1181
    rhs       c22                          3615
    rhs       c23                          1306
    rhs       c24                          1959
    rhs       c25                          1474
    rhs       c26                          1888
    rhs       c27                          1237
    rhs       c28                          2751
    rhs       c29                          2088
    rhs       c30                          2677
    rhs       c31                          2803
    rhs       c32                          2442
    rhs       c33                          1964
    rhs       c34                          2516
    rhs       c35                          1933
BOUNDS
 LI bnd       x1        0
 LI bnd       x2        0
 LI bnd       x3        0
 LI bnd       x4        0
 LI bnd       x5        0
 LI bnd       x6        0
 LI bnd       x7        0
 LI bnd       x8        0
 LI bnd       x9        0
 LI bnd       x10       0
 LI bnd       x11       0
 LI bnd       x12       0
 LI bnd       x13       0
 LI bnd       x14       0
 LI bnd       x15       0
 LI bnd       x16       0
 LI bnd       x17       0
 LI bnd       x18       0
 LI bnd       x19       0
 LI bnd       x20       0
 LI bnd       x21       0
 LI bnd       x22       0
 LI bnd       x23       0
 LI bnd       x24       0
 LI bnd       x25       0
 LI bnd       x26       0
 LI bnd       x27       0
 LI bnd       x28       0
 LI bnd       x29       0
 LI bnd       x30       0
 LI bnd       x31       0
 LI bnd       x32       0
 LI bnd       x33       0
 LI bnd       x34       0
 LI bnd       x35       0
 LI bnd       x36       0
 LI bnd       x37       0
 LI bnd       x38       0
 LI bnd       x39       0
 LI bnd       x40       0
 LI bnd       x41       0
 LI bnd       x42       0
 LI bnd       x43       0
 LI bnd       x44       0
 LI bnd       x45       0
 LI bnd       x46       0
 LI bnd       x47       0
 LI bnd       x48       0
 LI bnd       x49       0
 LI bnd       x50       0
 LI bnd       x51       0
 LI bnd       x52       0
 LI bnd       x53       0
 LI bnd       x54       0
 LI bnd       x55       0
 LI bnd       x56       0
 LI bnd       x57       0
 LI bnd       x58       0
 LI bnd       x59       0
 LI bnd       x60       0
 LI bnd       x61       0
 LI bnd       x62       0
 LI bnd       x63       0
 LI bnd       x64       0
 LI bnd       x65       0
 LI bnd       x66       0
 LI bnd       x67       0
 LI bnd       x68       0
 LI bnd       x69       0
 LI bnd       x70       0
ENDATA
